/* Objective function */
min: - 0.0054fpdi - 0.0054fpdo + 0.05apdi + 0.05apdo + 0.0002pi + 0.0002po - 0.5fsi - 0.5fso;

apdi = 0.0 hi + 0.0 li + 12.9123 ri + -0.04286 ci + -1.95282 si + 0.0 ti + 0.11252 fTempIi + 0.01462 ami + -157.24399;
asi = 0.0 hi + -0.0 li + -0.00011 ri + -0.00044 ci + -4e-05 si + -0.0 ti + -0.00019 fTempIi + 0.00014 ami + 0.01144;
aTempOi = 0.0 hi + 0.0 li + 0.27059 ri + -0.09073 ci + -0.05403 si + -0.0 ti + 0.79992 fTempIi + -0.00042 ami + 6.81661;
fpdi = 0.0 hi + -0.0 li + 30.11329 ri + -107.5654 ci + -0.06544 si + -0.0 ti + -1.56528 fTempIi + 0.00051 ami + 834.07738;
fsi = 0.0 hi + -0.0 li + -0.00016 ri + -0.20721 ci + 3e-05 si + -0.0 ti + 0.00093 fTempIi + -0.0 ami + 3.10294;
fTempOi = 0.0 hi + 0.0 li + -0.26647 ri + 0.09127 ci + 0.05338 si + 0.0 ti + 0.22521 fTempIi + -0.00039 ami + 10.06345;
pi = 0.0 hi + 0.0 li + 194.275 ri + 2.73333 ci + -19.14143 si + 0.0 ti + -0.0 fTempIi + -0.0 ami + 592.12857;

apdo = 0.0 ho + -0.0 lo + 0.0 ro + -0.14286 co + -1.21429 so + 0.0 to + -0.00272 fTempIo + 0.00916 amo + -16.25663;
aso = 0.0 ho + -0.0 lo + 0.0 ro + -0.00222 co + -0.00019 so + 0.0 to + -0.00095 fTempIo + 0.00014 amo + 0.04024;
aTempOo = 0.0 ho + 0.0 lo + -0.0 ro + 0.1169 co + 0.07575 so + 0.0 to + 0.66897 fTempIo + 0.00041 amo + -1.49853;
fpdo = 0.0 ho + -0.0 lo + -0.0 ro + -64.51984 co + 0.06029 so + 0.0 to + -1.04456 fTempIo + -0.00027 amo + 678.33457;
fso = 0.0 ho + -0.0 lo + -0.0 ro + -0.20595 co + -5e-05 so + 0.0 to + 0.00116 fTempIo + 0.0 amo + 3.09561;
fTempOo = 0.0 ho + -0.0 lo + -0.0 ro + -0.12937 co + -0.07554 so + 0.0 to + 0.33422 fTempIo + 0.00034 amo + 15.02658;
po = 0.0 ho + 0.0 lo + 0.0 ro + 2.66667 co + -10.12143 so + 0.0 to + -0.0 fTempIo + -0.0 amo + 1407.17857;

/* Variable bounds */
aTempOi > 18.6;
1 =r6i + r8i + r10i + r12i + r14i;
ri =6r6i + 8r8i + 10r10i + 12r12i + 14r14i;
1 =s25i + s30i + s40i;
si =25s25i + 30s30i + 40s40i;
ti = 1;
apdi > 100;
apdi < 300;
asi > 0;
asi < 3;
aTempOi > 5;
aTempOi < 25;
fpdi > 100;
fpdi < 300;
fsi > 0;
fsi < 1.25;
fTempOi > 5;
fTempOi < 25;
pi > 0;
ri > 6;
ri < 14;
ci > 1;
ci < 9;
si > 25;
si < 60;
ti > 1;
ti < 3;
fTempIi > 5;
fTempIi < 25;

/* aTempOo < 11.4; */
1 =r6o + r8o + r10o + r12o + r14o;
ro =6r6o + 8r8o + 10r10o + 12r12o + 14r14o;
1 =s25o + s30o + s40o;
so =25s25o + 30s30o + 40s40o;
to = 2;
apdo > 100;
apdo < 300;
aso > 0;
aso < 3;
aTempOo > 5;
aTempOo < 25;
fpdo > 100;
fpdo < 300;
fso > 0;
fso < 1.25;
fTempOo > 5;
fTempOo < 25;
po > 0;
ro > 6;
ro < 8;
co > 1;
co < 9;
so > 25;
so < 60;
to > 1;
to < 3;
fTempIo > 5;
fTempIo < 25;
int hi,li,si,ti,ci,ri,ami;
int ho,lo,so,to,co,ro,amo;
bin s25i,s30i,s40i,s50i,s60i,r6i,r8i,r10i,r12i,r14i;
bin s25o,s30o,s40o,s50o,s60o,r6o,r8o,r10o,r12o,r14o;
